set K:= 1	2;
set C_H:= 1	2	3;
set C_S:= 4;
set C_F:= 5;
set M:= 6	7	8	9	10	11;
set L_B:= 12	13;
set A1:=
(0,*) 1 2 3 5 6 7 8 9 10 11 12 13 14
(1,*) 0 2 3 5 6 7 8 9 10 11 12 13 14
(2,*) 0 1 3 5 6 7 8 9 10 11 12 13 14
(3,*) 0 1 2 5 6 7 8 9 10 11 12 13 14
(5,*) 0 1 2 3 6 7 8 9 10 11 12 13 14
(6,*) 0 1 2 3 5 7 8 9 10 11 12 13 14
(7,*) 0 1 2 3 5 6 8 9 10 11 12 13 14
(8,*) 0 1 2 3 5 6 7 9 10 11 12 13 14
(9,*) 0 1 2 3 5 6 7 8 10 11 12 13 14
(10,*) 0 1 2 3 5 6 7 8 9 11 12 13 14
(11,*) 0 1 2 3 5 6 7 8 9 10 12 13 14
(12,*) 0 1 2 3 5 6 7 8 9 10 11 13 14
(13,*) 0 1 2 3 5 6 7 8 9 10 11 12 14
(14,*) 0 1 2 3 5 6 7 8 9 10 11 12 13
;
set A2:=
(6,*) 7
(7,*) 6
(8,*) 9
(9,*) 8
(10,*) 11
(11,*) 10
;
param BigM:=99999;
param n:= 2;
param d:=
1	2
2	12
3	8
4	9
5	8
;
param Q:=100;
param w:=
[6,*] 7 2
[7,*] 6 2
[8,*] 9 2
[9,*] 8 2
[10,*] 11 2
[11,*] 10 2
;
param V:=
[6,*] 7 96
[7,*] 6 96
[8,*] 9 89
[9,*] 8 89
[10,*] 11 92
[11,*] 10 92
;
param e:
	6	7	8	9	10	11	12	13:=
4		0		0		1		0		0		0		0		0	
5		0		1		0		0		0		0		0		0	
;
param p:=
1	1
2	1
;
param G:=
6	74
7	96
8	80
9	89
10	90
11	92
12	84
13	84
;
param s:=
0	0
1	10
2	10
3	10
5	10
6	10
7	10
8	10
9	10
10	10
11	10
12	10
13	10
;
param t:
	0	1	2	3	4	5	6	7	8	9	10	11	12	13	14:=
0	0.0	62.29	51.88	36.24	72.78	78.03	20.81	83.49	64.94	61.19	13.0	62.8	49.04	35.36	0.0
1	62.29	0.0	55.17	37.8	101.53	64.85	48.47	55.23	93.24	18.11	59.77	76.42	44.55	32.89	62.29
2	51.88	55.17	0.0	63.51	47.17	26.4	58.42	36.25	39.36	68.26	61.03	21.26	10.63	29.83	51.88
3	36.24	37.8	63.51	0.0	100.24	84.38	15.81	81.91	91.71	28.44	27.46	82.01	55.01	34.01	36.24
4	72.78	101.53	47.17	100.24	0.0	56.14	89.32	73.68	8.6	112.54	85.62	27.51	57.43	71.59	72.78
5	78.03	64.85	26.4	84.38	56.14	0.0	82.28	18.03	51.09	81.49	86.41	30.41	30.36	50.8	78.03
6	20.81	48.47	58.42	15.81	89.32	82.28	0.0	83.24	80.99	43.0	12.0	74.33	51.92	32.2	20.81
7	83.49	55.23	36.25	81.91	73.68	18.03	83.24	0.0	68.07	73.06	89.63	47.01	34.71	51.11	83.49
8	64.94	93.24	39.36	91.71	8.6	51.09	80.99	68.07	0.0	104.0	77.67	21.1	49.4	63.03	64.94
9	61.19	18.11	68.26	28.44	112.54	81.49	43.0	73.06	104.0	0.0	55.0	89.31	57.8	41.01	61.19
10	13.0	59.77	61.03	27.46	85.62	86.41	12.0	89.63	77.67	55.0	0.0	74.17	56.36	38.95	13.0
11	62.8	76.42	21.26	82.01	27.51	30.41	74.33	47.01	21.1	89.31	74.17	0.0	31.89	49.66	62.8
12	49.04	44.55	10.63	55.01	57.43	30.36	51.92	34.71	49.4	57.8	56.36	31.89	0.0	21.0	49.04
13	35.36	32.89	29.83	34.01	71.59	50.8	32.2	51.11	63.03	41.01	38.95	49.66	21.0	0.0	35.36
;
